c File: flat50_3_0.col
c
c SOURCE: Joseph Culberson (joe@cs.ualberta.ca)
c DESCRIPTION: Quasi-random coloring problem
c              generated with flatness = 0
c                             probability = 0.139
c                             known coloring = 3
c                             random seed = 1673
c              Creation Date:  Tue Jun  9 12:15:04 1998
c Maximum degree = 8 Minimum degree = 0
c p edge 50 115
c cnf created by edge2cnf
p cnf 150 545
-1 -2 0
-1 -3 0
-2 -3 0
1 2 3 0
-4 -5 0
-4 -6 0
-5 -6 0
4 5 6 0
-7 -8 0
-7 -9 0
-8 -9 0
7 8 9 0
-10 -11 0
-10 -12 0
-11 -12 0
10 11 12 0
-13 -14 0
-13 -15 0
-14 -15 0
13 14 15 0
-16 -17 0
-16 -18 0
-17 -18 0
16 17 18 0
-19 -20 0
-19 -21 0
-20 -21 0
19 20 21 0
-22 -23 0
-22 -24 0
-23 -24 0
22 23 24 0
-25 -26 0
-25 -27 0
-26 -27 0
25 26 27 0
-28 -29 0
-28 -30 0
-29 -30 0
28 29 30 0
-31 -32 0
-31 -33 0
-32 -33 0
31 32 33 0
-34 -35 0
-34 -36 0
-35 -36 0
34 35 36 0
-37 -38 0
-37 -39 0
-38 -39 0
37 38 39 0
-40 -41 0
-40 -42 0
-41 -42 0
40 41 42 0
-43 -44 0
-43 -45 0
-44 -45 0
43 44 45 0
-46 -47 0
-46 -48 0
-47 -48 0
46 47 48 0
-49 -50 0
-49 -51 0
-50 -51 0
49 50 51 0
-52 -53 0
-52 -54 0
-53 -54 0
52 53 54 0
-55 -56 0
-55 -57 0
-56 -57 0
55 56 57 0
-58 -59 0
-58 -60 0
-59 -60 0
58 59 60 0
-61 -62 0
-61 -63 0
-62 -63 0
61 62 63 0
-64 -65 0
-64 -66 0
-65 -66 0
64 65 66 0
-67 -68 0
-67 -69 0
-68 -69 0
67 68 69 0
-70 -71 0
-70 -72 0
-71 -72 0
70 71 72 0
-73 -74 0
-73 -75 0
-74 -75 0
73 74 75 0
-76 -77 0
-76 -78 0
-77 -78 0
76 77 78 0
-79 -80 0
-79 -81 0
-80 -81 0
79 80 81 0
-82 -83 0
-82 -84 0
-83 -84 0
82 83 84 0
-85 -86 0
-85 -87 0
-86 -87 0
85 86 87 0
-88 -89 0
-88 -90 0
-89 -90 0
88 89 90 0
-91 -92 0
-91 -93 0
-92 -93 0
91 92 93 0
-94 -95 0
-94 -96 0
-95 -96 0
94 95 96 0
-97 -98 0
-97 -99 0
-98 -99 0
97 98 99 0
-100 -101 0
-100 -102 0
-101 -102 0
100 101 102 0
-103 -104 0
-103 -105 0
-104 -105 0
103 104 105 0
-106 -107 0
-106 -108 0
-107 -108 0
106 107 108 0
-109 -110 0
-109 -111 0
-110 -111 0
109 110 111 0
-112 -113 0
-112 -114 0
-113 -114 0
112 113 114 0
-115 -116 0
-115 -117 0
-116 -117 0
115 116 117 0
-118 -119 0
-118 -120 0
-119 -120 0
118 119 120 0
-121 -122 0
-121 -123 0
-122 -123 0
121 122 123 0
-124 -125 0
-124 -126 0
-125 -126 0
124 125 126 0
-127 -128 0
-127 -129 0
-128 -129 0
127 128 129 0
-130 -131 0
-130 -132 0
-131 -132 0
130 131 132 0
-133 -134 0
-133 -135 0
-134 -135 0
133 134 135 0
-136 -137 0
-136 -138 0
-137 -138 0
136 137 138 0
-139 -140 0
-139 -141 0
-140 -141 0
139 140 141 0
-142 -143 0
-142 -144 0
-143 -144 0
142 143 144 0
-145 -146 0
-145 -147 0
-146 -147 0
145 146 147 0
-148 -149 0
-148 -150 0
-149 -150 0
148 149 150 0
-67 -1 0
-68 -2 0
-69 -3 0
-82 -1 0
-83 -2 0
-84 -3 0
-52 -4 0
-53 -5 0
-54 -6 0
-76 -4 0
-77 -5 0
-78 -6 0
-82 -4 0
-83 -5 0
-84 -6 0
-88 -4 0
-89 -5 0
-90 -6 0
-118 -4 0
-119 -5 0
-120 -6 0
-76 -7 0
-77 -8 0
-78 -9 0
-91 -7 0
-92 -8 0
-93 -9 0
-103 -7 0
-104 -8 0
-105 -9 0
-130 -7 0
-131 -8 0
-132 -9 0
-142 -7 0
-143 -8 0
-144 -9 0
-148 -7 0
-149 -8 0
-150 -9 0
-70 -10 0
-71 -11 0
-72 -12 0
-109 -10 0
-110 -11 0
-111 -12 0
-115 -10 0
-116 -11 0
-117 -12 0
-127 -10 0
-128 -11 0
-129 -12 0
-142 -10 0
-143 -11 0
-144 -12 0
-115 -13 0
-116 -14 0
-117 -15 0
-118 -13 0
-119 -14 0
-120 -15 0
-67 -16 0
-68 -17 0
-69 -18 0
-94 -16 0
-95 -17 0
-96 -18 0
-109 -16 0
-110 -17 0
-111 -18 0
-115 -16 0
-116 -17 0
-117 -18 0
-145 -16 0
-146 -17 0
-147 -18 0
-61 -19 0
-62 -20 0
-63 -21 0
-70 -19 0
-71 -20 0
-72 -21 0
-94 -19 0
-95 -20 0
-96 -21 0
-139 -19 0
-140 -20 0
-141 -21 0
-97 -22 0
-98 -23 0
-99 -24 0
-103 -22 0
-104 -23 0
-105 -24 0
-118 -22 0
-119 -23 0
-120 -24 0
-121 -22 0
-122 -23 0
-123 -24 0
-124 -22 0
-125 -23 0
-126 -24 0
-61 -25 0
-62 -26 0
-63 -27 0
-79 -25 0
-80 -26 0
-81 -27 0
-85 -25 0
-86 -26 0
-87 -27 0
-94 -25 0
-95 -26 0
-96 -27 0
-145 -25 0
-146 -26 0
-147 -27 0
-85 -28 0
-86 -29 0
-87 -30 0
-64 -31 0
-65 -32 0
-66 -33 0
-127 -31 0
-128 -32 0
-129 -33 0
-136 -31 0
-137 -32 0
-138 -33 0
-148 -31 0
-149 -32 0
-150 -33 0
-61 -34 0
-62 -35 0
-63 -36 0
-79 -34 0
-80 -35 0
-81 -36 0
-97 -34 0
-98 -35 0
-99 -36 0
-100 -34 0
-101 -35 0
-102 -36 0
-130 -34 0
-131 -35 0
-132 -36 0
-139 -34 0
-140 -35 0
-141 -36 0
-55 -37 0
-56 -38 0
-57 -39 0
-64 -37 0
-65 -38 0
-66 -39 0
-67 -37 0
-68 -38 0
-69 -39 0
-121 -37 0
-122 -38 0
-123 -39 0
-127 -37 0
-128 -38 0
-129 -39 0
-145 -37 0
-146 -38 0
-147 -39 0
-148 -37 0
-149 -38 0
-150 -39 0
-58 -40 0
-59 -41 0
-60 -42 0
-67 -40 0
-68 -41 0
-69 -42 0
-88 -40 0
-89 -41 0
-90 -42 0
-139 -40 0
-140 -41 0
-141 -42 0
-142 -40 0
-143 -41 0
-144 -42 0
-52 -43 0
-53 -44 0
-54 -45 0
-100 -43 0
-101 -44 0
-102 -45 0
-124 -43 0
-125 -44 0
-126 -45 0
-133 -43 0
-134 -44 0
-135 -45 0
-64 -46 0
-65 -47 0
-66 -48 0
-82 -46 0
-83 -47 0
-84 -48 0
-97 -46 0
-98 -47 0
-99 -48 0
-124 -46 0
-125 -47 0
-126 -48 0
-58 -49 0
-59 -50 0
-60 -51 0
-61 -49 0
-62 -50 0
-63 -51 0
-64 -49 0
-65 -50 0
-66 -51 0
-94 -49 0
-95 -50 0
-96 -51 0
-103 -49 0
-104 -50 0
-105 -51 0
-127 -49 0
-128 -50 0
-129 -51 0
-133 -49 0
-134 -50 0
-135 -51 0
-139 -49 0
-140 -50 0
-141 -51 0
-115 -52 0
-116 -53 0
-117 -54 0
-127 -52 0
-128 -53 0
-129 -54 0
-133 -52 0
-134 -53 0
-135 -54 0
-148 -52 0
-149 -53 0
-150 -54 0
-127 -55 0
-128 -56 0
-129 -57 0
-112 -58 0
-113 -59 0
-114 -60 0
-124 -58 0
-125 -59 0
-126 -60 0
-139 -58 0
-140 -59 0
-141 -60 0
-106 -61 0
-107 -62 0
-108 -63 0
-106 -64 0
-107 -65 0
-108 -66 0
-133 -64 0
-134 -65 0
-135 -66 0
-109 -67 0
-110 -68 0
-111 -69 0
-118 -67 0
-119 -68 0
-120 -69 0
-124 -67 0
-125 -68 0
-126 -69 0
-145 -67 0
-146 -68 0
-147 -69 0
-115 -70 0
-116 -71 0
-117 -72 0
-148 -70 0
-149 -71 0
-150 -72 0
-118 -76 0
-119 -77 0
-120 -78 0
-121 -76 0
-122 -77 0
-123 -78 0
-148 -76 0
-149 -77 0
-150 -78 0
-118 -79 0
-119 -80 0
-120 -81 0
-127 -79 0
-128 -80 0
-129 -81 0
-109 -82 0
-110 -83 0
-111 -84 0
-133 -82 0
-134 -83 0
-135 -84 0
-148 -82 0
-149 -83 0
-150 -84 0
-127 -85 0
-128 -86 0
-129 -87 0
-109 -88 0
-110 -89 0
-111 -90 0
-124 -88 0
-125 -89 0
-126 -90 0
-124 -91 0
-125 -92 0
-126 -93 0
-133 -91 0
-134 -92 0
-135 -93 0
-136 -91 0
-137 -92 0
-138 -93 0
-139 -91 0
-140 -92 0
-141 -93 0
-103 -94 0
-104 -95 0
-105 -96 0
-130 -94 0
-131 -95 0
-132 -96 0
-112 -97 0
-113 -98 0
-114 -99 0
-121 -97 0
-122 -98 0
-123 -99 0
-130 -97 0
-131 -98 0
-132 -99 0
